18 4
46 13 74 36 67 53 54 93 19 28 96 25 40 61 65 74 66 84
57 21 91 35 62 53 61 85 33 45 84 33 44 66 61 77 53 81
38 27 68 40 47 33 73 99 36 51 106 28 21 81 39 74 42 85
55 9 70 51 64 29 48 90 21 47 88 45 28 67 41 98 56 77
